run_GA_72/stage6_vacuity/vac/model/design_smt2.smt2
; SMT-LIBv2 description generated by Yosys 0.63 (git sha1 70a11c6bf0e8dd669f56c7da3587f78b405138e2, clang++ 17.0.0 -fPIC -O3)
; yosys-smt2-module top
(declare-sort |top_s| 0)
(declare-fun |top_is| (|top_s|) Bool)
; yosys-smt2-anyseq top#0 3 $auto$setundef.cc:533:execute$640
; yosys-smt2-witness {"offset": 0, "path": ["\\_witness_", "\\anyseq_auto_setundef_cc_533_execute_640"], "smtname": 0, "smtoffset": 0, "type": "seq", "width": 3}
(declare-fun |top#0| (|top_s|) (_ BitVec 3)) ; \_witness_.anyseq_auto_setundef_cc_533_execute_640
; yosys-smt2-wire _witness_.anyseq_auto_setundef_cc_533_execute_640 3
(define-fun |top_n _witness_.anyseq_auto_setundef_cc_533_execute_640| ((state |top_s|)) (_ BitVec 3) (|top#0| state))
; yosys-smt2-anyseq top#1 3 $auto$setundef.cc:533:execute$638
; yosys-smt2-witness {"offset": 0, "path": ["\\_witness_", "\\anyseq_auto_setundef_cc_533_execute_638"], "smtname": 1, "smtoffset": 0, "type": "seq", "width": 3}
(declare-fun |top#1| (|top_s|) (_ BitVec 3)) ; \_witness_.anyseq_auto_setundef_cc_533_execute_638
; yosys-smt2-wire _witness_.anyseq_auto_setundef_cc_533_execute_638 3
(define-fun |top_n _witness_.anyseq_auto_setundef_cc_533_execute_638| ((state |top_s|)) (_ BitVec 3) (|top#1| state))
; yosys-smt2-anyseq top#2 3 $auto$setundef.cc:533:execute$636
; yosys-smt2-witness {"offset": 0, "path": ["\\_witness_", "\\anyseq_auto_setundef_cc_533_execute_636"], "smtname": 2, "smtoffset": 0, "type": "seq", "width": 3}
(declare-fun |top#2| (|top_s|) (_ BitVec 3)) ; \_witness_.anyseq_auto_setundef_cc_533_execute_636
; yosys-smt2-wire _witness_.anyseq_auto_setundef_cc_533_execute_636 3
(define-fun |top_n _witness_.anyseq_auto_setundef_cc_533_execute_636| ((state |top_s|)) (_ BitVec 3) (|top#2| state))
; yosys-smt2-anyseq top#3 1 $auto$setundef.cc:533:execute$634
; yosys-smt2-witness {"offset": 0, "path": ["\\_witness_", "\\anyseq_auto_setundef_cc_533_execute_634"], "smtname": 3, "smtoffset": 0, "type": "seq", "width": 1}
(declare-fun |top#3| (|top_s|) (_ BitVec 1)) ; \_witness_.anyseq_auto_setundef_cc_533_execute_634
; yosys-smt2-wire _witness_.anyseq_auto_setundef_cc_533_execute_634 1
(define-fun |top_n _witness_.anyseq_auto_setundef_cc_533_execute_634| ((state |top_s|)) Bool (= ((_ extract 0 0) (|top#3| state)) #b1))
; yosys-smt2-anyseq top#4 3 $auto$setundef.cc:533:execute$632
; yosys-smt2-witness {"offset": 0, "path": ["\\_witness_", "\\anyseq_auto_setundef_cc_533_execute_632"], "smtname": 4, "smtoffset": 0, "type": "seq", "width": 3}
(declare-fun |top#4| (|top_s|) (_ BitVec 3)) ; \_witness_.anyseq_auto_setundef_cc_533_execute_632
; yosys-smt2-wire _witness_.anyseq_auto_setundef_cc_533_execute_632 3
(define-fun |top_n _witness_.anyseq_auto_setundef_cc_533_execute_632| ((state |top_s|)) (_ BitVec 3) (|top#4| state))
; yosys-smt2-anyseq top#5 3 $auto$setundef.cc:533:execute$630
; yosys-smt2-witness {"offset": 0, "path": ["\\_witness_", "\\anyseq_auto_setundef_cc_533_execute_630"], "smtname": 5, "smtoffset": 0, "type": "seq", "width": 3}
(declare-fun |top#5| (|top_s|) (_ BitVec 3)) ; \_witness_.anyseq_auto_setundef_cc_533_execute_630
; yosys-smt2-wire _witness_.anyseq_auto_setundef_cc_533_execute_630 3
(define-fun |top_n _witness_.anyseq_auto_setundef_cc_533_execute_630| ((state |top_s|)) (_ BitVec 3) (|top#5| state))
; yosys-smt2-anyseq top#6 3 $auto$setundef.cc:533:execute$628
; yosys-smt2-witness {"offset": 0, "path": ["\\_witness_", "\\anyseq_auto_setundef_cc_533_execute_628"], "smtname": 6, "smtoffset": 0, "type": "seq", "width": 3}
(declare-fun |top#6| (|top_s|) (_ BitVec 3)) ; \_witness_.anyseq_auto_setundef_cc_533_execute_628
; yosys-smt2-wire _witness_.anyseq_auto_setundef_cc_533_execute_628 3
(define-fun |top_n _witness_.anyseq_auto_setundef_cc_533_execute_628| ((state |top_s|)) (_ BitVec 3) (|top#6| state))
; yosys-smt2-anyseq top#7 3 $auto$setundef.cc:533:execute$626
; yosys-smt2-witness {"offset": 0, "path": ["\\_witness_", "\\anyseq_auto_setundef_cc_533_execute_626"], "smtname": 7, "smtoffset": 0, "type": "seq", "width": 3}
(declare-fun |top#7| (|top_s|) (_ BitVec 3)) ; \_witness_.anyseq_auto_setundef_cc_533_execute_626
; yosys-smt2-wire _witness_.anyseq_auto_setundef_cc_533_execute_626 3
(define-fun |top_n _witness_.anyseq_auto_setundef_cc_533_execute_626| ((state |top_s|)) (_ BitVec 3) (|top#7| state))
; yosys-smt2-anyseq top#8 3 $auto$setundef.cc:533:execute$624
; yosys-smt2-witness {"offset": 0, "path": ["\\_witness_", "\\anyseq_auto_setundef_cc_533_execute_624"], "smtname": 8, "smtoffset": 0, "type": "seq", "width": 3}
(declare-fun |top#8| (|top_s|) (_ BitVec 3)) ; \_witness_.anyseq_auto_setundef_cc_533_execute_624
; yosys-smt2-wire _witness_.anyseq_auto_setundef_cc_533_execute_624 3
(define-fun |top_n _witness_.anyseq_auto_setundef_cc_533_execute_624| ((state |top_s|)) (_ BitVec 3) (|top#8| state))
; yosys-smt2-anyseq top#9 3 $auto$setundef.cc:533:execute$622
; yosys-smt2-witness {"offset": 0, "path": ["\\_witness_", "\\anyseq_auto_setundef_cc_533_execute_622"], "smtname": 9, "smtoffset": 0, "type": "seq", "width": 3}
(declare-fun |top#9| (|top_s|) (_ BitVec 3)) ; \_witness_.anyseq_auto_setundef_cc_533_execute_622
; yosys-smt2-wire _witness_.anyseq_auto_setundef_cc_533_execute_622 3
(define-fun |top_n _witness_.anyseq_auto_setundef_cc_533_execute_622| ((state |top_s|)) (_ BitVec 3) (|top#9| state))
; yosys-smt2-anyseq top#10 3 $auto$setundef.cc:533:execute$620
; yosys-smt2-witness {"offset": 0, "path": ["\\_witness_", "\\anyseq_auto_setundef_cc_533_execute_620"], "smtname": 10, "smtoffset": 0, "type": "seq", "width": 3}
(declare-fun |top#10| (|top_s|) (_ BitVec 3)) ; \_witness_.anyseq_auto_setundef_cc_533_execute_620
; yosys-smt2-wire _witness_.anyseq_auto_setundef_cc_533_execute_620 3
(define-fun |top_n _witness_.anyseq_auto_setundef_cc_533_execute_620| ((state |top_s|)) (_ BitVec 3) (|top#10| state))
; yosys-smt2-anyseq top#11 3 $auto$setundef.cc:533:execute$618
; yosys-smt2-witness {"offset": 0, "path": ["\\_witness_", "\\anyseq_auto_setundef_cc_533_execute_618"], "smtname": 11, "smtoffset": 0, "type": "seq", "width": 3}
(declare-fun |top#11| (|top_s|) (_ BitVec 3)) ; \_witness_.anyseq_auto_setundef_cc_533_execute_618
; yosys-smt2-wire _witness_.anyseq_auto_setundef_cc_533_execute_618 3
(define-fun |top_n _witness_.anyseq_auto_setundef_cc_533_execute_618| ((state |top_s|)) (_ BitVec 3) (|top#11| state))
; yosys-smt2-anyseq top#12 3 $auto$setundef.cc:533:execute$616
; yosys-smt2-witness {"offset": 0, "path": ["\\_witness_", "\\anyseq_auto_setundef_cc_533_execute_616"], "smtname": 12, "smtoffset": 0, "type": "seq", "width": 3}
(declare-fun |top#12| (|top_s|) (_ BitVec 3)) ; \_witness_.anyseq_auto_setundef_cc_533_execute_616
; yosys-smt2-wire _witness_.anyseq_auto_setundef_cc_533_execute_616 3
(define-fun |top_n _witness_.anyseq_auto_setundef_cc_533_execute_616| ((state |top_s|)) (_ BitVec 3) (|top#12| state))
; yosys-smt2-anyseq top#13 3 $auto$setundef.cc:533:execute$614
; yosys-smt2-witness {"offset": 0, "path": ["\\_witness_", "\\anyseq_auto_setundef_cc_533_execute_614"], "smtname": 13, "smtoffset": 0, "type": "seq", "width": 3}
(declare-fun |top#13| (|top_s|) (_ BitVec 3)) ; \_witness_.anyseq_auto_setundef_cc_533_execute_614
; yosys-smt2-wire _witness_.anyseq_auto_setundef_cc_533_execute_614 3
(define-fun |top_n _witness_.anyseq_auto_setundef_cc_533_execute_614| ((state |top_s|)) (_ BitVec 3) (|top#13| state))
; yosys-smt2-anyseq top#14 3 $auto$setundef.cc:533:execute$612
; yosys-smt2-witness {"offset": 0, "path": ["\\_witness_", "\\anyseq_auto_setundef_cc_533_execute_612"], "smtname": 14, "smtoffset": 0, "type": "seq", "width": 3}
(declare-fun |top#14| (|top_s|) (_ BitVec 3)) ; \_witness_.anyseq_auto_setundef_cc_533_execute_612
; yosys-smt2-wire _witness_.anyseq_auto_setundef_cc_533_execute_612 3
(define-fun |top_n _witness_.anyseq_auto_setundef_cc_533_execute_612| ((state |top_s|)) (_ BitVec 3) (|top#14| state))
; yosys-smt2-anyseq top#15 3 $auto$setundef.cc:533:execute$610
; yosys-smt2-witness {"offset": 0, "path": ["\\_witness_", "\\anyseq_auto_setundef_cc_533_execute_610"], "smtname": 15, "smtoffset": 0, "type": "seq", "width": 3}
(declare-fun |top#15| (|top_s|) (_ BitVec 3)) ; \_witness_.anyseq_auto_setundef_cc_533_execute_610
; yosys-smt2-wire _witness_.anyseq_auto_setundef_cc_533_execute_610 3
(define-fun |top_n _witness_.anyseq_auto_setundef_cc_533_execute_610| ((state |top_s|)) (_ BitVec 3) (|top#15| state))
; yosys-smt2-anyseq top#16 3 $auto$setundef.cc:533:execute$608
; yosys-smt2-witness {"offset": 0, "path": ["\\_witness_", "\\anyseq_auto_setundef_cc_533_execute_608"], "smtname": 16, "smtoffset": 0, "type": "seq", "width": 3}
(declare-fun |top#16| (|top_s|) (_ BitVec 3)) ; \_witness_.anyseq_auto_setundef_cc_533_execute_608
; yosys-smt2-wire _witness_.anyseq_auto_setundef_cc_533_execute_608 3
(define-fun |top_n _witness_.anyseq_auto_setundef_cc_533_execute_608| ((state |top_s|)) (_ BitVec 3) (|top#16| state))
; yosys-smt2-anyseq top#17 3 $auto$setundef.cc:533:execute$606
; yosys-smt2-witness {"offset": 0, "path": ["\\_witness_", "\\anyseq_auto_setundef_cc_533_execute_606"], "smtname": 17, "smtoffset": 0, "type": "seq", "width": 3}
(declare-fun |top#17| (|top_s|) (_ BitVec 3)) ; \_witness_.anyseq_auto_setundef_cc_533_execute_606
; yosys-smt2-wire _witness_.anyseq_auto_setundef_cc_533_execute_606 3
(define-fun |top_n _witness_.anyseq_auto_setundef_cc_533_execute_606| ((state |top_s|)) (_ BitVec 3) (|top#17| state))
; yosys-smt2-witness {"offset": 0, "path": ["$auto$async2sync.cc:107:execute$593"], "smtname": 18, "smtoffset": 0, "type": "reg", "width": 1}
(declare-fun |top#18| (|top_s|) (_ BitVec 1)) ; $auto$async2sync.cc:107:execute$593
; yosys-smt2-register $auto$async2sync.cc:107:execute$593 1
(define-fun |top_n $auto$async2sync.cc:107:execute$593| ((state |top_s|)) Bool (= ((_ extract 0 0) (|top#18| state)) #b1))
; yosys-smt2-anyinit top#19 3 vac_dut.sv:32.4-42.7
; yosys-smt2-witness {"offset": 0, "path": ["\\_witness_", "\\anyinit_procdff_582"], "smtname": 19, "smtoffset": 0, "type": "init", "width": 3}
(declare-fun |top#19| (|top_s|) (_ BitVec 3)) ; \_witness_.anyinit_procdff_582
; yosys-smt2-register _witness_.anyinit_procdff_582 3
; yosys-smt2-wire _witness_.anyinit_procdff_582 3
(define-fun |top_n _witness_.anyinit_procdff_582| ((state |top_s|)) (_ BitVec 3) (|top#19| state))
; yosys-smt2-witness {"offset": 0, "path": ["$auto$async2sync.cc:116:execute$597"], "smtname": 20, "smtoffset": 0, "type": "reg", "width": 1}
(declare-fun |top#20| (|top_s|) (_ BitVec 1)) ; $auto$async2sync.cc:116:execute$597
; yosys-smt2-register $auto$async2sync.cc:116:execute$597 1
(define-fun |top_n $auto$async2sync.cc:116:execute$597| ((state |top_s|)) Bool (= ((_ extract 0 0) (|top#20| state)) #b1))
; yosys-smt2-anyinit top#21 1 vac_dut.sv:43.4-207.7
; yosys-smt2-witness {"offset": 0, "path": ["\\_witness_", "\\anyinit_auto_proc_dlatch_cc_432_proc_dlatch_444"], "smtname": 21, "smtoffset": 0, "type": "init", "width": 1}
(declare-fun |top#21| (|top_s|) (_ BitVec 1)) ; \_witness_.anyinit_auto_proc_dlatch_cc_432_proc_dlatch_444
; yosys-smt2-register _witness_.anyinit_auto_proc_dlatch_cc_432_proc_dlatch_444 1
; yosys-smt2-wire _witness_.anyinit_auto_proc_dlatch_cc_432_proc_dlatch_444 1
(define-fun |top_n _witness_.anyinit_auto_proc_dlatch_cc_432_proc_dlatch_444| ((state |top_s|)) Bool (= ((_ extract 0 0) (|top#21| state)) #b1))
(declare-fun |top#22| (|top_s|) Bool) ; \clk
; yosys-smt2-input clk 1
; yosys-smt2-wire clk 1
; yosys-smt2-clock clk posedge
; yosys-smt2-witness {"offset": 0, "path": ["\\clk"], "smtname": "clk", "smtoffset": 0, "type": "posedge", "width": 1}
; yosys-smt2-witness {"offset": 0, "path": ["\\clk"], "smtname": "clk", "smtoffset": 0, "type": "input", "width": 1}
(define-fun |top_n clk| ((state |top_s|)) Bool (|top#22| state))
(declare-fun |top#23| (|top_s|) (_ BitVec 8)) ; \d_in_0
; yosys-smt2-input d_in_0 8
; yosys-smt2-wire d_in_0 8
; yosys-smt2-witness {"offset": 0, "path": ["\\d_in_0"], "smtname": "d_in_0", "smtoffset": 0, "type": "input", "width": 8}
(define-fun |top_n d_in_0| ((state |top_s|)) (_ BitVec 8) (|top#23| state))
(declare-fun |top#24| (|top_s|) (_ BitVec 8)) ; \d_in_1
; yosys-smt2-input d_in_1 8
; yosys-smt2-wire d_in_1 8
; yosys-smt2-witness {"offset": 0, "path": ["\\d_in_1"], "smtname": "d_in_1", "smtoffset": 0, "type": "input", "width": 8}
(define-fun |top_n d_in_1| ((state |top_s|)) (_ BitVec 8) (|top#24| state))
; yosys-smt2-anyinit top#25 1 vac_dut.sv:26.4-31.7
; yosys-smt2-witness {"offset": 0, "path": ["\\d_o"], "smtname": 25, "smtoffset": 0, "type": "init", "width": 1}
(declare-fun |top#25| (|top_s|) (_ BitVec 1)) ; \d_o
; yosys-smt2-output d_o 1
; yosys-smt2-register d_o 1
; yosys-smt2-wire d_o 1
(define-fun |top_n d_o| ((state |top_s|)) Bool (= ((_ extract 0 0) (|top#25| state)) #b1))
(declare-fun |top#26| (|top_s|) (_ BitVec 1)) ; \rst
(define-fun |top#27| ((state |top_s|)) (_ BitVec 3) (ite (= ((_ extract 0 0) (|top#26| state)) #b1) (|top#19| state) #b000)) ; \pstate
(define-fun |top#28| ((state |top_s|)) Bool (= (|top#27| state) #b111)) ; $procmux$30_CMP
(define-fun |top#29| ((state |top_s|)) Bool (= (|top#27| state) #b110)) ; $procmux$413_CMP
(define-fun |top#30| ((state |top_s|)) Bool (= (|top#27| state) #b101)) ; $procmux$109_CMP
(define-fun |top#31| ((state |top_s|)) Bool (= (|top#27| state) #b100)) ; $procmux$141_CMP
(define-fun |top#32| ((state |top_s|)) Bool (= (|top#27| state) #b011)) ; $procmux$188_CMP
(define-fun |top#33| ((state |top_s|)) Bool (= (|top#27| state) #b010)) ; $procmux$240_CMP
(define-fun |top#34| ((state |top_s|)) Bool (= (|top#27| state) #b001)) ; $procmux$297_CMP
(define-fun |top#35| ((state |top_s|)) (_ BitVec 1) (ite (|top#34| state) ((_ extract 1 1) (|top#24| state)) (ite (|top#33| state) ((_ extract 2 2) (|top#24| state)) (ite (|top#32| state) ((_ extract 3 3) (|top#24| state)) (ite (|top#31| state) ((_ extract 4 4) (|top#24| state)) (ite (|top#30| state) ((_ extract 5 5) (|top#24| state)) (ite (|top#29| state) ((_ extract 6 6) (|top#24| state)) (ite (|top#28| state) ((_ extract 7 7) (|top#24| state)) ((_ extract 0 0) (|top#24| state)))))))))) ; $0\d_o_reg[0:0]
(define-fun |top#36| ((state |top_s|)) Bool (not (or  (= ((_ extract 0 0) (|top#27| state)) #b1) (= ((_ extract 1 1) (|top#27| state)) #b1) (= ((_ extract 2 2) (|top#27| state)) #b1)))) ; $procmux$359_CMP
(declare-fun |top#37| (|top_s|) (_ BitVec 1)) ; \selection
(define-fun |top#38| ((state |top_s|)) (_ BitVec 1) (bvnot (|top#37| state))) ; $auto$rtlil.cc:3343:ReduceOr$451
(define-fun |top#39| ((state |top_s|)) (_ BitVec 1) (bvand (ite (|top#36| state) #b1 #b0) (|top#38| state))) ; $auto$rtlil.cc:3343:ReduceOr$569
(define-fun |top#40| ((state |top_s|)) (_ BitVec 1) (bvand (ite (|top#36| state) #b1 #b0) (|top#39| state))) ; $auto$rtlil.cc:3386:And$573
(define-fun |top#41| ((state |top_s|)) (_ BitVec 1) (bvand (ite (|top#34| state) #b1 #b0) (|top#38| state))) ; $auto$rtlil.cc:3343:ReduceOr$553
(define-fun |top#42| ((state |top_s|)) (_ BitVec 1) (bvand (ite (|top#34| state) #b1 #b0) (|top#41| state))) ; $auto$rtlil.cc:3386:And$557
(define-fun |top#43| ((state |top_s|)) (_ BitVec 1) (bvand (ite (|top#33| state) #b1 #b0) (|top#38| state))) ; $auto$rtlil.cc:3343:ReduceOr$537
(define-fun |top#44| ((state |top_s|)) (_ BitVec 1) (bvand (ite (|top#33| state) #b1 #b0) (|top#43| state))) ; $auto$rtlil.cc:3386:And$541
(define-fun |top#45| ((state |top_s|)) (_ BitVec 1) (bvand (ite (|top#32| state) #b1 #b0) (|top#38| state))) ; $auto$rtlil.cc:3343:ReduceOr$521
(define-fun |top#46| ((state |top_s|)) (_ BitVec 1) (bvand (ite (|top#32| state) #b1 #b0) (|top#45| state))) ; $auto$rtlil.cc:3386:And$525
(define-fun |top#47| ((state |top_s|)) (_ BitVec 1) (bvand (ite (|top#31| state) #b1 #b0) (|top#38| state))) ; $auto$rtlil.cc:3343:ReduceOr$505
(define-fun |top#48| ((state |top_s|)) (_ BitVec 1) (bvand (ite (|top#31| state) #b1 #b0) (|top#47| state))) ; $auto$rtlil.cc:3386:And$509
(define-fun |top#49| ((state |top_s|)) (_ BitVec 1) (bvand (ite (|top#30| state) #b1 #b0) (|top#38| state))) ; $auto$rtlil.cc:3343:ReduceOr$489
(define-fun |top#50| ((state |top_s|)) (_ BitVec 1) (bvand (ite (|top#30| state) #b1 #b0) (|top#49| state))) ; $auto$rtlil.cc:3386:And$493
(define-fun |top#51| ((state |top_s|)) (_ BitVec 1) (bvand (ite (|top#29| state) #b1 #b0) (|top#38| state))) ; $auto$rtlil.cc:3343:ReduceOr$473
(define-fun |top#52| ((state |top_s|)) (_ BitVec 1) (bvand (ite (|top#29| state) #b1 #b0) (|top#51| state))) ; $auto$rtlil.cc:3386:And$477
(define-fun |top#53| ((state |top_s|)) (_ BitVec 1) (bvand (ite (|top#28| state) #b1 #b0) (|top#38| state))) ; $auto$rtlil.cc:3343:ReduceOr$457
(define-fun |top#54| ((state |top_s|)) (_ BitVec 1) (bvand (ite (|top#28| state) #b1 #b0) (|top#53| state))) ; $auto$rtlil.cc:3386:And$461
(define-fun |top#55| ((state |top_s|)) Bool (or  (= ((_ extract 0 0) (|top#40| state)) #b1) (= ((_ extract 0 0) (|top#42| state)) #b1) (= ((_ extract 0 0) (|top#44| state)) #b1) (= ((_ extract 0 0) (|top#46| state)) #b1) (= ((_ extract 0 0) (|top#48| state)) #b1) (= ((_ extract 0 0) (|top#50| state)) #b1) (= ((_ extract 0 0) (|top#52| state)) #b1) (= ((_ extract 0 0) (|top#54| state)) #b1))) ; $auto$rtlil.cc:3343:ReduceOr$575
(define-fun |top#56| ((state |top_s|)) (_ BitVec 1) (ite (|top#55| state) (|top#21| state) (|top#35| state))) ; \d_o_reg
; yosys-smt2-wire d_o_reg 1
(define-fun |top_n d_o_reg| ((state |top_s|)) Bool (= ((_ extract 0 0) (|top#56| state)) #b1))
(declare-fun |top#57| (|top_s|) Bool) ; \enable
; yosys-smt2-input enable 1
; yosys-smt2-wire enable 1
; yosys-smt2-witness {"offset": 0, "path": ["\\enable"], "smtname": "enable", "smtoffset": 0, "type": "input", "width": 1}
(define-fun |top_n enable| ((state |top_s|)) Bool (|top#57| state))
; yosys-smt2-witness {"offset": 0, "path": ["\\f_past_valid"], "smtname": 58, "smtoffset": 0, "type": "reg", "width": 1}
(declare-fun |top#58| (|top_s|) (_ BitVec 1)) ; \f_past_valid
; yosys-smt2-register f_past_valid 1
; yosys-smt2-wire f_past_valid 1
(define-fun |top_n f_past_valid| ((state |top_s|)) Bool (= ((_ extract 0 0) (|top#58| state)) #b1))
(define-fun |top#59| ((state |top_s|)) (_ BitVec 1) (bvnot ((_ extract 7 7) (|top#23| state)))) ; $procmux$34_CMP
(define-fun |top#60| ((state |top_s|)) (_ BitVec 3) (ite (= ((_ extract 0 0) (|top#59| state)) #b1) #b110 (ite (= ((_ extract 7 7) (|top#23| state)) #b1) #b111 (|top#7| state)))) ; $24\nstate[2:0]
(define-fun |top#61| ((state |top_s|)) (_ BitVec 1) (bvnot ((_ extract 7 7) (|top#24| state)))) ; $procmux$25_CMP
(define-fun |top#62| ((state |top_s|)) (_ BitVec 3) (ite (= ((_ extract 0 0) (|top#61| state)) #b1) #b110 (ite (= ((_ extract 7 7) (|top#24| state)) #b1) #b111 (|top#12| state)))) ; $25\nstate[2:0]
(define-fun |top#63| ((state |top_s|)) (_ BitVec 3) (ite (= ((_ extract 0 0) (|top#37| state)) #b1) (|top#62| state) (|top#60| state))) ; $23\nstate[2:0]
(define-fun |top#64| ((state |top_s|)) (_ BitVec 1) (bvnot ((_ extract 6 6) (|top#23| state)))) ; $procmux$67_CMP
(define-fun |top#65| ((state |top_s|)) (_ BitVec 3) (ite (= ((_ extract 0 0) (|top#64| state)) #b1) #b101 (ite (= ((_ extract 6 6) (|top#23| state)) #b1) #b100 (|top#1| state)))) ; $21\nstate[2:0]
(define-fun |top#66| ((state |top_s|)) (_ BitVec 1) (bvnot ((_ extract 6 6) (|top#24| state)))) ; $procmux$57_CMP
(define-fun |top#67| ((state |top_s|)) (_ BitVec 3) (ite (= ((_ extract 0 0) (|top#66| state)) #b1) #b101 (ite (= ((_ extract 6 6) (|top#24| state)) #b1) #b100 (|top#2| state)))) ; $22\nstate[2:0]
(define-fun |top#68| ((state |top_s|)) (_ BitVec 3) (ite (= ((_ extract 0 0) (|top#37| state)) #b1) (|top#67| state) (|top#65| state))) ; $20\nstate[2:0]
(define-fun |top#69| ((state |top_s|)) (_ BitVec 1) (bvnot ((_ extract 5 5) (|top#23| state)))) ; $procmux$105_CMP
(define-fun |top#70| ((state |top_s|)) (_ BitVec 3) (ite (= ((_ extract 0 0) (|top#69| state)) #b1) #b010 (ite (= ((_ extract 5 5) (|top#23| state)) #b1) #b011 (|top#17| state)))) ; $18\nstate[2:0]
(define-fun |top#71| ((state |top_s|)) (_ BitVec 1) (bvnot ((_ extract 5 5) (|top#24| state)))) ; $procmux$94_CMP
(define-fun |top#72| ((state |top_s|)) (_ BitVec 3) (ite (= ((_ extract 0 0) (|top#71| state)) #b1) #b010 (ite (= ((_ extract 5 5) (|top#24| state)) #b1) #b011 (|top#0| state)))) ; $19\nstate[2:0]
(define-fun |top#73| ((state |top_s|)) (_ BitVec 3) (ite (= ((_ extract 0 0) (|top#37| state)) #b1) (|top#72| state) (|top#70| state))) ; $17\nstate[2:0]
(define-fun |top#74| ((state |top_s|)) (_ BitVec 1) (bvnot ((_ extract 4 4) (|top#23| state)))) ; $procmux$148_CMP
(define-fun |top#75| ((state |top_s|)) (_ BitVec 3) (ite (= ((_ extract 0 0) (|top#74| state)) #b1) #b001 (ite (= ((_ extract 4 4) (|top#23| state)) #b1) #b000 (|top#15| state)))) ; $15\nstate[2:0]
(define-fun |top#76| ((state |top_s|)) (_ BitVec 1) (bvnot ((_ extract 4 4) (|top#24| state)))) ; $procmux$136_CMP
(define-fun |top#77| ((state |top_s|)) (_ BitVec 3) (ite (= ((_ extract 0 0) (|top#76| state)) #b1) #b001 (ite (= ((_ extract 4 4) (|top#24| state)) #b1) #b000 (|top#16| state)))) ; $16\nstate[2:0]
(define-fun |top#78| ((state |top_s|)) (_ BitVec 3) (ite (= ((_ extract 0 0) (|top#37| state)) #b1) (|top#77| state) (|top#75| state))) ; $14\nstate[2:0]
(define-fun |top#79| ((state |top_s|)) (_ BitVec 1) (bvnot ((_ extract 3 3) (|top#23| state)))) ; $procmux$196_CMP
(define-fun |top#80| ((state |top_s|)) (_ BitVec 3) (ite (= ((_ extract 0 0) (|top#79| state)) #b1) #b111 (ite (= ((_ extract 3 3) (|top#23| state)) #b1) #b110 (|top#13| state)))) ; $12\nstate[2:0]
(define-fun |top#81| ((state |top_s|)) (_ BitVec 1) (bvnot ((_ extract 3 3) (|top#24| state)))) ; $procmux$183_CMP
(define-fun |top#82| ((state |top_s|)) (_ BitVec 3) (ite (= ((_ extract 0 0) (|top#81| state)) #b1) #b111 (ite (= ((_ extract 3 3) (|top#24| state)) #b1) #b110 (|top#14| state)))) ; $13\nstate[2:0]
(define-fun |top#83| ((state |top_s|)) (_ BitVec 3) (ite (= ((_ extract 0 0) (|top#37| state)) #b1) (|top#82| state) (|top#80| state))) ; $11\nstate[2:0]
(define-fun |top#84| ((state |top_s|)) (_ BitVec 1) (bvnot ((_ extract 2 2) (|top#23| state)))) ; $procmux$249_CMP
(define-fun |top#85| ((state |top_s|)) (_ BitVec 3) (ite (= ((_ extract 0 0) (|top#84| state)) #b1) #b100 (ite (= ((_ extract 2 2) (|top#23| state)) #b1) #b101 (|top#10| state)))) ; $9\nstate[2:0]
(define-fun |top#86| ((state |top_s|)) (_ BitVec 1) (bvnot ((_ extract 2 2) (|top#24| state)))) ; $procmux$235_CMP
(define-fun |top#87| ((state |top_s|)) (_ BitVec 3) (ite (= ((_ extract 0 0) (|top#86| state)) #b1) #b100 (ite (= ((_ extract 2 2) (|top#24| state)) #b1) #b101 (|top#11| state)))) ; $10\nstate[2:0]
(define-fun |top#88| ((state |top_s|)) (_ BitVec 3) (ite (= ((_ extract 0 0) (|top#37| state)) #b1) (|top#87| state) (|top#85| state))) ; $8\nstate[2:0]
(define-fun |top#89| ((state |top_s|)) (_ BitVec 1) (bvnot ((_ extract 1 1) (|top#23| state)))) ; $procmux$307_CMP
(define-fun |top#90| ((state |top_s|)) (_ BitVec 3) (ite (= ((_ extract 0 0) (|top#89| state)) #b1) #b011 (ite (= ((_ extract 1 1) (|top#23| state)) #b1) #b010 (|top#8| state)))) ; $6\nstate[2:0]
(define-fun |top#91| ((state |top_s|)) (_ BitVec 1) (bvnot ((_ extract 1 1) (|top#24| state)))) ; $procmux$292_CMP
(define-fun |top#92| ((state |top_s|)) (_ BitVec 3) (ite (= ((_ extract 0 0) (|top#91| state)) #b1) #b011 (ite (= ((_ extract 1 1) (|top#24| state)) #b1) #b010 (|top#9| state)))) ; $7\nstate[2:0]
(define-fun |top#93| ((state |top_s|)) (_ BitVec 3) (ite (= ((_ extract 0 0) (|top#37| state)) #b1) (|top#92| state) (|top#90| state))) ; $5\nstate[2:0]
(define-fun |top#94| ((state |top_s|)) (_ BitVec 1) (bvnot ((_ extract 0 0) (|top#23| state)))) ; $procmux$370_CMP
(define-fun |top#95| ((state |top_s|)) (_ BitVec 3) (ite (= ((_ extract 0 0) (|top#94| state)) #b1) #b000 (ite (= ((_ extract 0 0) (|top#23| state)) #b1) #b001 (|top#5| state)))) ; $3\nstate[2:0]
(define-fun |top#96| ((state |top_s|)) (_ BitVec 1) (bvnot ((_ extract 0 0) (|top#24| state)))) ; $procmux$354_CMP
(define-fun |top#97| ((state |top_s|)) (_ BitVec 3) (ite (= ((_ extract 0 0) (|top#96| state)) #b1) #b000 (ite (= ((_ extract 0 0) (|top#24| state)) #b1) #b001 (|top#6| state)))) ; $4\nstate[2:0]
(define-fun |top#98| ((state |top_s|)) (_ BitVec 3) (ite (= ((_ extract 0 0) (|top#37| state)) #b1) (|top#97| state) (|top#95| state))) ; $2\nstate[2:0]
(define-fun |top#99| ((state |top_s|)) (_ BitVec 3) (ite (|top#36| state) (|top#98| state) (ite (|top#34| state) (|top#93| state) (ite (|top#33| state) (|top#88| state) (ite (|top#32| state) (|top#83| state) (ite (|top#31| state) (|top#78| state) (ite (|top#30| state) (|top#73| state) (ite (|top#29| state) (|top#68| state) (ite (|top#28| state) (|top#63| state) (|top#4| state)))))))))) ; \nstate
; yosys-smt2-wire nstate 3
(define-fun |top_n nstate| ((state |top_s|)) (_ BitVec 3) (|top#99| state))
; yosys-smt2-wire pstate 3
(define-fun |top_n pstate| ((state |top_s|)) (_ BitVec 3) (|top#27| state))
; yosys-smt2-input rst 1
; yosys-smt2-wire rst 1
; yosys-smt2-witness {"offset": 0, "path": ["\\rst"], "smtname": "rst", "smtoffset": 0, "type": "input", "width": 1}
(define-fun |top_n rst| ((state |top_s|)) Bool (= ((_ extract 0 0) (|top#26| state)) #b1))
; yosys-smt2-input selection 1
; yosys-smt2-wire selection 1
; yosys-smt2-witness {"offset": 0, "path": ["\\selection"], "smtname": "selection", "smtoffset": 0, "type": "input", "width": 1}
(define-fun |top_n selection| ((state |top_s|)) Bool (= ((_ extract 0 0) (|top#37| state)) #b1))
; yosys-smt2-anyinit top#100 1 vac_dut.sv:26.4-31.7
; yosys-smt2-witness {"offset": 0, "path": ["\\selection_buf"], "smtname": 100, "smtoffset": 0, "type": "init", "width": 1}
(declare-fun |top#100| (|top_s|) (_ BitVec 1)) ; \selection_buf
; yosys-smt2-register selection_buf 1
; yosys-smt2-wire selection_buf 1
(define-fun |top_n selection_buf| ((state |top_s|)) Bool (= ((_ extract 0 0) (|top#100| state)) #b1))
(define-fun |top#101| ((state |top_s|)) (_ BitVec 1) (ite (= ((_ extract 0 0) (|top#58| state)) #b1) #b1 #b0)) ; \vac_a_nstate_trans_001_to_010_r4_alt_EN
; yosys-smt2-wire vac_a_nstate_trans_001_to_010_r4_alt_EN 1
(define-fun |top_n vac_a_nstate_trans_001_to_010_r4_alt_EN| ((state |top_s|)) Bool (= ((_ extract 0 0) (|top#101| state)) #b1))
; yosys-smt2-anyinit top#102 1 vac_dut.sv:26.4-31.7
; yosys-smt2-witness {"offset": 0, "path": ["\\wr_en"], "smtname": 102, "smtoffset": 0, "type": "init", "width": 1}
(declare-fun |top#102| (|top_s|) (_ BitVec 1)) ; \wr_en
; yosys-smt2-output wr_en 1
; yosys-smt2-register wr_en 1
; yosys-smt2-wire wr_en 1
(define-fun |top_n wr_en| ((state |top_s|)) Bool (= ((_ extract 0 0) (|top#102| state)) #b1))
(define-fun |top#103| ((state |top_s|)) (_ BitVec 1) (ite (= ((_ extract 0 0) (|top#37| state)) #b1) #b1 #b0)) ; $2\wr_en_reg[0:0]
(define-fun |top#104| ((state |top_s|)) Bool (or  (|top#28| state) (|top#30| state) (|top#31| state) (|top#32| state) (|top#33| state) (|top#34| state) (|top#36| state) (|top#29| state))) ; $auto$opt_reduce.cc:137:opt_pmux$587
(define-fun |top#105| ((state |top_s|)) (_ BitVec 1) (ite (|top#104| state) (|top#103| state) (|top#3| state))) ; \wr_en_reg
; yosys-smt2-wire wr_en_reg 1
(define-fun |top_n wr_en_reg| ((state |top_s|)) Bool (= ((_ extract 0 0) (|top#105| state)) #b1))
(define-fun |top#106| ((state |top_s|)) (_ BitVec 1) (bvnot (ite (|top#22| state) #b1 #b0))) ; $auto$rtlil.cc:3339:Not$643
; yosys-smt2-assume 0 $auto$formalff.cc:987:execute$644
(define-fun |top_u 0| ((state |top_s|)) Bool (or (= ((_ extract 0 0) (|top#106| state)) #b1) (not true))) ; $auto$formalff.cc:987:execute$644
; yosys-smt2-cover 0 vac_a_nstate_trans_001_to_010_r4_alt
(define-fun |top_c 0| ((state |top_s|)) Bool (and (= ((_ extract 0 0) (|top#20| state)) #b1) (= ((_ extract 0 0) (|top#18| state)) #b1))) ; vac_a_nstate_trans_001_to_010_r4_alt
(define-fun |top#107| ((state |top_s|)) Bool (= (|top#99| state) #b010)) ; $eq$vac_dut.sv:215$19_Y
(define-fun |top#108| ((state |top_s|)) Bool (and (or  (= ((_ extract 0 0) (|top#100| state)) #b1) false) (or  (= ((_ extract 0 0) (|top#38| state)) #b1) false))) ; $logic_and$vac_dut.sv:38$7_Y
(define-fun |top#109| ((state |top_s|)) (_ BitVec 3) (ite (|top#108| state) #b000 (|top#99| state))) ; $procmux$439_Y
(define-fun |top#110| ((state |top_s|)) (_ BitVec 3) (ite (|top#57| state) (|top#109| state) #b000)) ; $0\pstate[2:0]
(define-fun |top#111| ((state |top_s|)) (_ BitVec 3) (ite (= ((_ extract 0 0) (|top#26| state)) #b1) (|top#110| state) #b000)) ; $auto$rtlil.cc:3474:Mux$603
(define-fun |top_a| ((state |top_s|)) Bool true)
(define-fun |top_u| ((state |top_s|)) Bool 
  (|top_u 0| state)
)
(define-fun |top_i| ((state |top_s|)) Bool (and
  (= (= ((_ extract 0 0) (|top#18| state)) #b1) false) ; $auto$async2sync.cc:107:execute$593
  (= (= ((_ extract 0 0) (|top#20| state)) #b1) true) ; $auto$async2sync.cc:116:execute$597
  (= (= ((_ extract 0 0) (|top#58| state)) #b1) false) ; f_past_valid
))
(define-fun |top_h| ((state |top_s|)) Bool true)
(define-fun |top_t| ((state |top_s|) (next_state |top_s|)) Bool (and
  (= (|top#105| state) (|top#102| next_state)) ; $procdff$584 \wr_en
  (= (|top#37| state) (|top#100| next_state)) ; $procdff$585 \selection_buf
  (= #b1 (|top#58| next_state)) ; $procdff$577 \f_past_valid
  (= (|top#56| state) (|top#25| next_state)) ; $procdff$583 \d_o
  (= (|top#56| state) (|top#21| next_state)) ; $auto$proc_dlatch.cc:432:proc_dlatch$444 \_witness_.anyinit_auto_proc_dlatch_cc_432_proc_dlatch_444
  (= (ite (|top#107| state) #b1 #b0) (|top#20| next_state)) ; $auto$async2sync.cc:118:execute$598 $auto$async2sync.cc:116:execute$597
  (= (|top#111| state) (|top#19| next_state)) ; $procdff$582 \_witness_.anyinit_procdff_582
  (= (|top#101| state) (|top#18| next_state)) ; $auto$async2sync.cc:110:execute$595 $auto$async2sync.cc:107:execute$593
)) ; end of module top
; yosys-smt2-topmod top
; end of yosys output
